20
1 0 9
2 0 2
2 1 9
3 0 1
3 1 4
3 2 6
4 0 12
4 1 6
4 2 1
4 3 9
5 0 4
5 1 7
5 2 15
5 3 8
5 4 13
6 0 8
6 1 8
6 2 10
6 3 6
6 4 10
6 5 4
7 0 1
7 1 9
7 2 4
7 3 11
7 4 1
7 5 6
7 6 1
8 0 4
8 1 7
8 2 6
8 3 14
8 4 10
8 5 11
8 6 4
8 7 4
9 0 3
9 1 4
9 2 8
9 3 8
9 4 6
9 5 13
9 6 8
9 7 6
9 8 10
10 0 3
10 1 13
10 2 9
10 3 4
10 4 7
10 5 12
10 6 13
10 7 2
10 8 10
10 9 9
11 0 12
11 1 7
11 2 15
11 3 15
11 4 1
11 5 3
11 6 9
11 7 13
11 8 12
11 9 14
11 10 3
12 0 5
12 1 1
12 2 15
12 3 10
12 4 4
12 5 8
12 6 4
12 7 14
12 8 8
12 9 2
12 10 14
12 11 4
13 0 14
13 1 2
13 2 1
13 3 14
13 4 1
13 5 4
13 6 2
13 7 10
13 8 15
13 9 8
13 10 5
13 11 11
13 12 7
14 0 8
14 1 12
14 2 7
14 3 2
14 4 10
14 5 8
14 6 5
14 7 15
14 8 7
14 9 3
14 10 5
14 11 13
14 12 11
14 13 11
15 0 9
15 1 15
15 2 13
15 3 7
15 4 1
15 5 13
15 6 2
15 7 15
15 8 9
15 9 8
15 10 13
15 11 1
15 12 8
15 13 9
15 14 11
16 0 15
16 1 4
16 2 6
16 3 8
16 4 11
16 5 14
16 6 12
16 7 7
16 8 14
16 9 14
16 10 12
16 11 6
16 12 10
16 13 13
16 14 9
16 15 10
17 0 10
17 1 9
17 2 4
17 3 9
17 4 15
17 5 5
17 6 7
17 7 13
17 8 9
17 9 1
17 10 11
17 11 10
17 12 3
17 13 3
17 14 6
17 15 11
17 16 15
18 0 2
18 1 13
18 2 10
18 3 15
18 4 14
18 5 6
18 6 6
18 7 9
18 8 5
18 9 15
18 10 13
18 11 6
18 12 11
18 13 6
18 14 14
18 15 15
18 16 15
18 17 13
19 0 9
19 1 15
19 2 7
19 3 5
19 4 12
19 5 15
19 6 7
19 7 9
19 8 9
19 9 4
19 10 13
19 11 11
19 12 15
19 13 6
19 14 6
19 15 10
19 16 3
19 17 9
19 18 8
